results/x-long/X-n129-k18.vrp_seed-15.vrp.sol
Route #1: 3
Route #2: 87 121 94 111 4 98 68 80
Route #3: 74 117 115 122 106 5 119
Route #4: 107 65 105 76 79 10 104 71
Route #5: 64 18 59 23 1 44 90
Route #6: 126 11 85 61 41 55 40 58 101 17 110
Route #7: 78 50 52 27 113 88 86
Route #8: 67 30 43 84 25 39 93
Route #9: 32 114 73 49 92 116 95 96 12 16
Route #10: 15 66 89 103 75 91
Route #11: 38 118 28 127 47
Route #12: 60 77 35 57 13 56 62
Route #13: 54 22 46 33 21 34 2 48 6 19
Route #14: 53 70 14 99 42 69 97 31 125 24
Route #15: 102 112 72 100 108 26 123
Route #16: 128 81 36 29 45
Route #17: 82 124 7 9 63 20
Route #18: 37 8 120 51 109 83
Cost 28948.000000